#######################
Slurm job id: 17497813_271
Running on machine: p70
Running cmd: /nfs/shared/static-builds/gurobi1202 SOFTMEMLIMIT=125 MIPFocus=0 Presolve=1 TimeLimit=300 seed=0 /nfs/models/miplib2010/k16x240.mps.bz2
#######################
Set parameter TimeLimit to value 300
Set parameter SoftMemLimit to value 125
Set parameter LogFile to value 1202-MIPFocus0-Presolve1-TimeLimit300-k16x240-0.log
Set parameter Presolve to value 1
Using license file /opt/gurobi/gurobi.lic

Gurobi Optimizer version 12.0.2 build v12.0.2rc0 (linux64 - "Ubuntu 22.04.4 LTS")
Copyright (c) 2025, Gurobi Optimization, LLC

Read MPS format model from file /nfs/models/miplib2010/k16x240.mps.bz2
Reading time = 0.00 seconds
k16x240: 256 rows, 480 columns, 960 nonzeros

Using Gurobi shared library /nfs/shared/static-builds/gurobi1202

CPU model: Intel(R) Xeon(R) E-2388G CPU @ 3.20GHz, instruction set [SSE2|AVX|AVX2|AVX512]
Thread count: 8 physical cores, 16 logical processors, using up to 16 threads

Non-default parameters:
TimeLimit  300
SoftMemLimit  125
Presolve  1

Optimize a model with 256 rows, 480 columns and 960 nonzeros
Model fingerprint: 0x4e80885f
Variable types: 240 continuous, 240 integer (240 binary)
Coefficient statistics:
  Matrix range     [1e+00, 1e+03]
  Objective range  [1e+00, 1e+03]
  Bounds range     [1e+00, 1e+03]
  RHS range        [4e+00, 4e+02]
Found heuristic solution: objective 23615.000000
Presolve time: 0.00s
Presolved: 256 rows, 480 columns, 960 nonzeros
Variable types: 240 continuous, 240 integer (240 binary)

Root relaxation: objective 2.769838e+03, 51 iterations, 0.00 seconds (0.00 work units)

    Nodes    |    Current Node    |     Objective Bounds      |     Work
 Expl Unexpl |  Obj  Depth IntInf | Incumbent    BestBd   Gap | It/Node Time

     0     0 2769.83800    0   14 23615.0000 2769.83800  88.3%     -    0s
H    0     0                    11359.000000 2769.83800  75.6%     -    0s
H    0     0                    11195.000000 2769.83800  75.3%     -    0s
H    0     0                    11088.000000 2769.83800  75.0%     -    0s
H    0     0                    11074.000000 8084.69631  27.0%     -    0s
     0     0 8084.69631    0   26 11074.0000 8084.69631  27.0%     -    0s
H    0     0                    10916.000000 8126.71248  25.6%     -    0s
     0     0 8528.16906    0   24 10916.0000 8528.16906  21.9%     -    0s
     0     0 8539.49533    0   34 10916.0000 8539.49533  21.8%     -    0s
H    0     0                    10896.000000 8548.03675  21.5%     -    0s
     0     0 8548.03675    0   29 10896.0000 8548.03675  21.5%     -    0s
H    0     0                    10806.000000 8548.03675  20.9%     -    0s
     0     0 8739.20556    0   38 10806.0000 8739.20556  19.1%     -    0s
H    0     0                    10739.000000 8745.55182  18.6%     -    0s
H    0     0                    10717.000000 8745.55182  18.4%     -    0s
     0     0 8805.66840    0   29 10717.0000 8805.66840  17.8%     -    0s
     0     0 8815.00598    0   31 10717.0000 8815.00598  17.7%     -    0s
     0     0 8817.96662    0   29 10717.0000 8817.96662  17.7%     -    0s
     0     0 9010.31403    0   35 10717.0000 9010.31403  15.9%     -    0s
     0     0 9019.58503    0   36 10717.0000 9019.58503  15.8%     -    0s
     0     0 9031.87582    0   37 10717.0000 9031.87582  15.7%     -    0s
     0     0 9033.40422    0   40 10717.0000 9033.40422  15.7%     -    0s
     0     0 9056.87240    0   28 10717.0000 9056.87240  15.5%     -    0s
     0     0 9069.18345    0   30 10717.0000 9069.18345  15.4%     -    0s
     0     0 9076.71975    0   27 10717.0000 9076.71975  15.3%     -    0s
     0     0 9108.92568    0   26 10717.0000 9108.92568  15.0%     -    0s
     0     0 9110.54950    0   26 10717.0000 9110.54950  15.0%     -    0s
     0     2 9112.53700    0   25 10717.0000 9112.53700  15.0%     -    0s
H   36    63                    10683.000000 9227.37944  13.6%  28.1    0s
H  488   435                    10674.000000 9278.36835  13.1%  18.9    0s
 35617 12404     cutoff   25      10674.0000 10055.3604  5.80%  29.1    5s
 74054 15711 10501.5163   31   15 10674.0000 10257.6983  3.90%  30.5   10s
 117769  7617     cutoff   33      10674.0000 10455.4552  2.05%  30.0   15s

Cutting planes:
  Lift-and-project: 29
  Cover: 69
  Implied bound: 27
  Dual implied bound: 38
  MIR: 181
  Flow cover: 275
  Flow path: 58
  Inf proof: 2
  Zero half: 5
  Network: 63
  Relax-and-lift: 1

Explored 131699 nodes (3766419 simplex iterations) in 15.94 seconds (20.95 work units)
Thread count was 16 (of 16 available processors)

Solution count 10: 10674 10683 10717 ... 11195

Optimal solution found (tolerance 1.00e-04)
Best objective 1.067400000000e+04, best bound 1.067400000000e+04, gap 0.0000%
